50	619684

7787 6787
8885 7885
1625 625
10000 9000
3631 2631
1990 990
2778 1778
4194 3194
7271 6271
10483 9483
9161 8161
10952 9952
1874 874
6689 5689
7234 6234
5940 4940
7560 6560
2352 1352
1438 438
10526 9526
9971 8971
4075 3075
5005 4005
9515 8515
1275 275
5279 4279
8232 7232
1397 397
8133 7133
1463 463
9492 8492
1532 532
5219 4219
5320 4320
4734 3734
9449 8449
9663 8663
9641 8641
2958 1958
4327 3327
9962 8962
6894 5894
10794 9794
10728 9728
5308 4308
3371 2371
4839 3839
5175 4175
5799 4799
7922 6922
